interdiction/MCDM/NO_CORR/GEN_FROM_60/12_ITEMS_1000_GEN/K5012W14.KNP.mps
NAME          BLANK   
ROWS
 N  OBJROW
 L  R0000000
COLUMNS
    C0000000  OBJROW     -671.         R0000000  338.        
    C0000001  OBJROW     -195.         R0000000  802.        
    C0000002  OBJROW     -987.         R0000000  336.        
    C0000003  OBJROW     -528.         R0000000  91.         
    C0000004  OBJROW     -455.         R0000000  75.         
    C0000005  OBJROW     -518.         R0000000  723.        
    C0000006  OBJROW     -308.         R0000000  651.        
    C0000007  OBJROW     -837.         R0000000  740.        
    C0000008  OBJROW     -926.         R0000000  917.        
    C0000009  OBJROW     -614.         R0000000  107.        
    C0000010  OBJROW     -734.         R0000000  909.        
    C0000011  OBJROW     -667.         R0000000  669.        
RHS
    RHS       R0000000  14110.      
BOUNDS
 BV BOUND     C0000000  1.          
 BV BOUND     C0000001  1.          
 BV BOUND     C0000002  1.          
 BV BOUND     C0000003  1.          
 BV BOUND     C0000004  1.          
 BV BOUND     C0000005  1.          
 BV BOUND     C0000006  1.          
 BV BOUND     C0000007  1.          
 BV BOUND     C0000008  1.          
 BV BOUND     C0000009  1.          
 BV BOUND     C0000010  1.          
 BV BOUND     C0000011  1.          
ENDATA
