interdiction/MCDM/NO_CORR/GEN_FROM_60/12_ITEMS_1000_GEN/K5012W14.KNP.txt
N 12
M 13
LC 12
LC 13
LC 14
LC 15
LC 16
LC 17
LC 18
LC 19
LC 20
LC 21
LC 22
LC 23
LR 1
LR 2
LR 3
LR 4
LR 5
LR 6
LR 7
LR 8
LR 9
LR 10
LR 11
LR 12
LR 13
LO -671
LO -195
LO -987
LO -528
LO -455
LO -518
LO -308
LO -837
LO -926
LO -614
LO -734
LO -667
OS 1
IC 294
IC 492
IC 618
IC 877
IC 285
IC 12
IC 50
IC 402
IC 959
IC 301
IC 843
IC 201
IB 2667
